% Generated from instance_24_70.json
Team = {team_1, team_2, team_3, team_4, team_5, team_6, team_7, team_8, team_9, team_10, team_11, team_12, team_13, team_14, team_15, team_16, team_17, team_18};
Task = {task_1, task_2, task_3, task_4, task_5, task_6, task_7, task_8, task_9, task_10, task_11, task_12, task_13};

horizon = 620;
duration = [15, 60, 45, 75, 15, 15, 30, 15, 30, 15, 30, 45, 15];
released = [351, 53, 195, 241, 5, 0, 0, 144, 164, 335, 21, 118, 545];
due = [426, 173, 300, 376, 80, 45, 64, 219, 254, 410, 111, 223, 620];
original_start = [381, 83, 225, 271, 35, 0, 4, 174, 194, 365, 51, 148, 575];
compatible = array2d(Task, Team, [1, 1, 1, 1, 1, 1, 1, 1, 1, 1, 1, 1, 1, 1, 1, 1, 1, 1, 1, 1, 1, 1, 1, 1, 1, 1, 1, 1, 1, 1, 1, 1, 1, 1, 1, 1, 1, 1, 1, 1, 1, 1, 1, 1, 1, 1, 1, 1, 1, 1, 1, 1, 1, 1, 1, 1, 1, 1, 1, 1, 1, 1, 1, 1, 1, 1, 1, 1, 1, 1, 1, 1, 1, 1, 1, 1, 1, 1, 1, 1, 1, 1, 1, 1, 1, 1, 1, 1, 1, 1, 1, 1, 1, 1, 1, 1, 1, 1, 1, 1, 1, 1, 1, 1, 1, 1, 1, 1, 1, 1, 1, 1, 1, 1, 1, 1, 1, 1, 1, 1, 1, 1, 1, 1, 1, 1, 1, 1, 1, 1, 1, 1, 1, 1, 1, 1, 1, 1, 1, 1, 1, 1, 1, 1, 1, 1, 1, 1, 1, 1, 1, 1, 1, 1, 1, 1, 1, 1, 1, 1, 1, 1, 1, 1, 1, 1, 1, 1, 1, 1, 1, 1, 1, 1, 1, 1, 1, 1, 1, 1, 1, 1, 1, 1, 1, 1, 1, 1, 1, 1, 1, 1, 1, 1, 1, 1, 1, 1, 1, 1, 1, 1, 1, 1, 1, 1, 1, 1, 1, 1, 1, 1, 1, 1, 1, 1, 1, 1, 1, 1, 1, 1, 1, 1, 1, 1, 1, 1, 1, 1, 1, 1, 1, 1]);

same_allocation = [{task_5, task_7}, {task_3, task_9}];

calendars = [
    (team: team_1, start_unavailable: 0, dur_unavailable: 3),
    (team: team_2, start_unavailable: 0, dur_unavailable: 3),
    (team: team_3, start_unavailable: 0, dur_unavailable: 3),
    (team: team_5, start_unavailable: 0, dur_unavailable: 3),
    (team: team_6, start_unavailable: 0, dur_unavailable: 3),
    (team: team_7, start_unavailable: 0, dur_unavailable: 3),
    (team: team_8, start_unavailable: 0, dur_unavailable: 3),
    (team: team_9, start_unavailable: 0, dur_unavailable: 3),
    (team: team_10, start_unavailable: 0, dur_unavailable: 3),
    (team: team_11, start_unavailable: 0, dur_unavailable: 3),
    (team: team_12, start_unavailable: 0, dur_unavailable: 3),
    (team: team_13, start_unavailable: 0, dur_unavailable: 3),
    (team: team_14, start_unavailable: 0, dur_unavailable: 3),
    (team: team_16, start_unavailable: 0, dur_unavailable: 3),
    (team: team_17, start_unavailable: 0, dur_unavailable: 3),
    (team: team_18, start_unavailable: 0, dur_unavailable: 3),
];