% Generated from instance_96.json
Team = {team_1, team_2, team_3, team_4, team_5, team_6, team_7, team_8, team_9, team_10, team_11, team_12, team_13, team_14, team_15, team_16, team_17, team_18};
Task = {task_1, task_2, task_3, task_4, task_5, task_6, task_7, task_8, task_9, task_10, task_11, task_12, task_13, task_14, task_15, task_16, task_17, task_18, task_19, task_20, task_21, task_22, task_23, task_24, task_25, task_26, task_27, task_28, task_29, task_30, task_31, task_32, task_33, task_34, task_35, task_36, task_37, task_38, task_39, task_40, task_41, task_42, task_43, task_44, task_45, task_46, task_47, task_48, task_49, task_50, task_51, task_52, task_53, task_54, task_55, task_56, task_57, task_58, task_59, task_60, task_61, task_62, task_63, task_64, task_65, task_66, task_67, task_68, task_69, task_70, task_71, task_72, task_73, task_74, task_75, task_76, task_77, task_78, task_79, task_80, task_81, task_82, task_83};

horizon = 494;
duration = [30, 15, 30, 60, 30, 45, 15, 30, 15, 15, 30, 30, 30, 15, 15, 30, 45, 60, 30, 15, 30, 45, 15, 15, 30, 15, 15, 45, 30, 30, 15, 30, 15, 15, 30, 30, 30, 45, 45, 45, 45, 45, 30, 30, 30, 15, 15, 15, 60, 30, 60, 15, 45, 30, 45, 15, 30, 15, 30, 15, 15, 30, 15, 30, 15, 15, 30, 30, 15, 30, 15, 30, 15, 13, 30, 30, 45, 15, 45, 45, 60, 30, 45];
released = [397, 284, 286, 285, 196, 0, 0, 111, 30, 394, 269, 148, 332, 364, 208, 173, 30, 297, 0, 346, 2, 385, 138, 320, 41, 322, 304, 46, 273, 211, 122, 266, 338, 159, 20, 200, 363, 199, 339, 0, 76, 245, 51, 242, 88, 419, 195, 180, 224, 168, 116, 227, 122, 342, 191, 389, 235, 375, 33, 354, 179, 117, 304, 204, 64, 380, 31, 253, 337, 177, 7, 8, 175, 237, 142, 358, 92, 319, 238, 293, 139, 0, 0];
due = [487, 359, 376, 405, 286, 89, 61, 201, 105, 469, 359, 238, 422, 439, 283, 263, 135, 417, 79, 421, 92, 490, 213, 395, 131, 397, 379, 151, 363, 301, 197, 356, 413, 234, 110, 290, 453, 304, 444, 89, 181, 350, 141, 332, 178, 494, 270, 255, 344, 258, 236, 302, 227, 432, 296, 464, 325, 450, 123, 429, 254, 207, 379, 294, 139, 455, 121, 343, 412, 267, 82, 98, 250, 310, 232, 448, 197, 394, 343, 398, 259, 60, 89];
original_start = [427, 314, 316, 315, 226, 14, 16, 141, 60, 424, 299, 178, 362, 394, 238, 203, 60, 327, 19, 376, 32, 415, 168, 350, 71, 352, 334, 76, 303, 241, 152, 296, 368, 189, 50, 230, 393, 229, 369, 14, 106, 275, 81, 272, 118, 449, 225, 210, 254, 198, 146, 257, 152, 372, 221, 419, 265, 405, 63, 384, 209, 147, 334, 234, 94, 410, 61, 283, 367, 207, 37, 38, 205, 267, 172, 388, 122, 349, 268, 323, 169, 0, 14];
compatible = array2d(Task, Team, [1, 1, 1, 1, 1, 1, 1, 1, 1, 1, 1, 1, 1, 1, 1, 1, 1, 1, 1, 1, 1, 1, 1, 1, 1, 1, 1, 1, 1, 1, 1, 1, 1, 1, 1, 1, 1, 1, 1, 1, 1, 1, 1, 1, 1, 1, 1, 1, 1, 1, 1, 1, 1, 1, 1, 1, 1, 1, 1, 1, 1, 1, 1, 1, 1, 1, 1, 1, 1, 1, 1, 1, 0, 1, 0, 1, 0, 0, 0, 0, 0, 0, 0, 0, 0, 0, 0, 0, 0, 0, 1, 1, 1, 1, 1, 1, 1, 1, 1, 1, 1, 1, 1, 1, 1, 1, 1, 1, 1, 1, 1, 1, 1, 1, 1, 1, 1, 1, 1, 1, 1, 1, 1, 1, 1, 1, 1, 1, 1, 1, 1, 1, 1, 1, 1, 1, 1, 1, 1, 1, 1, 1, 1, 1, 1, 1, 1, 1, 1, 1, 1, 1, 1, 1, 1, 1, 1, 1, 1, 1, 1, 1, 1, 1, 1, 1, 1, 1, 1, 1, 1, 1, 1, 1, 1, 1, 1, 1, 1, 1, 1, 1, 1, 1, 1, 1, 1, 1, 1, 1, 1, 1, 1, 1, 1, 1, 1, 1, 1, 1, 1, 1, 1, 1, 1, 1, 1, 1, 1, 1, 1, 1, 1, 1, 1, 1, 1, 1, 1, 1, 1, 1, 1, 1, 1, 1, 1, 1, 1, 1, 1, 1, 1, 1, 1, 1, 1, 1, 1, 1, 1, 1, 1, 1, 1, 1, 1, 1, 1, 1, 1, 1, 1, 1, 1, 1, 1, 1, 1, 1, 1, 1, 1, 1, 1, 1, 1, 1, 1, 1, 1, 1, 1, 1, 1, 1, 1, 1, 1, 1, 1, 1, 1, 1, 1, 1, 1, 1, 1, 1, 1, 1, 1, 1, 1, 1, 1, 1, 1, 1, 1, 1, 1, 1, 1, 1, 1, 1, 1, 1, 1, 1, 1, 1, 1, 1, 1, 1, 1, 1, 1, 1, 1, 1, 1, 1, 1, 1, 1, 1, 1, 1, 1, 1, 1, 1, 1, 1, 1, 1, 1, 1, 1, 1, 1, 1, 1, 1, 1, 1, 1, 1, 1, 1, 1, 1, 1, 1, 1, 1, 1, 1, 1, 1, 1, 1, 1, 1, 1, 1, 1, 1, 1, 1, 1, 1, 1, 1, 1, 1, 1, 1, 1, 1, 1, 1, 1, 1, 1, 1, 1, 1, 1, 1, 1, 1, 1, 1, 1, 1, 1, 1, 1, 1, 1, 1, 1, 1, 1, 1, 1, 1, 1, 1, 1, 1, 1, 1, 1, 1, 1, 1, 1, 1, 1, 1, 1, 1, 1, 1, 1, 1, 1, 1, 1, 1, 1, 1, 1, 1, 1, 1, 1, 1, 1, 1, 1, 1, 1, 1, 1, 1, 1, 1, 1, 1, 1, 1, 1, 1, 1, 1, 1, 1, 1, 1, 1, 1, 1, 1, 1, 1, 1, 1, 1, 1, 1, 1, 1, 1, 1, 1, 1, 1, 1, 1, 1, 1, 1, 1, 1, 1, 1, 1, 1, 1, 1, 1, 1, 1, 1, 1, 1, 1, 1, 1, 1, 1, 1, 1, 1, 1, 1, 1, 1, 1, 1, 1, 1, 1, 1, 1, 1, 1, 1, 1, 1, 1, 1, 1, 1, 1, 1, 1, 1, 1, 1, 1, 1, 1, 1, 1, 1, 1, 1, 1, 1, 1, 1, 1, 1, 1, 1, 1, 1, 1, 1, 1, 1, 1, 1, 1, 1, 1, 1, 1, 1, 1, 1, 1, 1, 1, 1, 1, 1, 1, 1, 1, 1, 1, 1, 1, 1, 1, 1, 1, 1, 1, 1, 1, 1, 1, 1, 1, 1, 1, 1, 1, 1, 1, 1, 1, 1, 1, 1, 1, 1, 1, 1, 1, 1, 1, 1, 1, 1, 1, 1, 1, 1, 1, 1, 1, 1, 1, 1, 1, 1, 1, 1, 1, 1, 1, 1, 1, 1, 1, 1, 1, 1, 1, 1, 1, 1, 1, 1, 1, 1, 1, 1, 1, 1, 1, 1, 1, 1, 1, 1, 1, 1, 1, 1, 1, 1, 1, 1, 1, 1, 1, 1, 1, 1, 1, 1, 1, 1, 1, 1, 1, 1, 1, 1, 1, 1, 1, 1, 1, 1, 1, 1, 1, 1, 1, 1, 1, 1, 1, 1, 1, 1, 1, 1, 1, 1, 1, 1, 1, 1, 1, 1, 1, 1, 1, 1, 1, 1, 1, 1, 1, 1, 1, 1, 1, 1, 1, 1, 1, 1, 1, 1, 1, 1, 1, 1, 1, 1, 1, 1, 1, 1, 1, 1, 1, 1, 1, 1, 1, 1, 1, 1, 1, 1, 1, 1, 1, 1, 1, 1, 1, 1, 1, 1, 1, 1, 1, 1, 1, 1, 1, 1, 1, 1, 1, 1, 1, 1, 1, 1, 1, 1, 1, 1, 1, 1, 1, 1, 1, 1, 1, 1, 1, 1, 1, 1, 1, 1, 1, 1, 1, 1, 1, 1, 1, 1, 1, 1, 1, 1, 1, 1, 1, 1, 1, 1, 1, 1, 1, 1, 1, 1, 1, 1, 1, 1, 1, 1, 1, 1, 1, 1, 1, 1, 1, 1, 1, 1, 1, 1, 1, 1, 1, 1, 1, 1, 1, 1, 1, 0, 1, 0, 1, 0, 0, 0, 0, 0, 0, 0, 0, 0, 0, 0, 0, 0, 0, 1, 1, 1, 1, 1, 1, 1, 1, 1, 1, 1, 1, 1, 1, 1, 1, 1, 1, 1, 1, 1, 1, 1, 1, 1, 1, 1, 1, 1, 1, 1, 1, 1, 1, 1, 1, 1, 1, 1, 1, 1, 1, 1, 1, 1, 1, 1, 1, 1, 1, 1, 1, 1, 1, 0, 1, 0, 1, 0, 0, 0, 0, 0, 0, 0, 0, 0, 0, 0, 0, 0, 0, 1, 1, 1, 1, 1, 1, 1, 1, 1, 1, 1, 1, 1, 1, 1, 1, 1, 1, 1, 1, 1, 1, 1, 1, 1, 1, 1, 1, 1, 1, 1, 1, 1, 1, 1, 1, 1, 1, 1, 1, 1, 1, 1, 1, 1, 1, 1, 1, 1, 1, 1, 1, 1, 1, 1, 1, 1, 1, 1, 1, 1, 1, 1, 1, 1, 1, 1, 1, 1, 1, 1, 1, 1, 1, 1, 1, 1, 1, 1, 1, 1, 1, 1, 1, 1, 1, 1, 1, 1, 1, 1, 1, 1, 1, 1, 1, 1, 1, 1, 1, 1, 1, 1, 1, 1, 1, 1, 1, 1, 1, 1, 1, 1, 1, 1, 1, 1, 1, 1, 1, 1, 1, 1, 1, 1, 1, 1, 1, 1, 1, 1, 1, 1, 1, 1, 1, 1, 1, 1, 1, 1, 1, 1, 1, 1, 1, 1, 1, 1, 1, 1, 1, 1, 1, 1, 1, 1, 1, 1, 1, 1, 1, 1, 1, 1, 1, 1, 1, 1, 1, 1, 1, 1, 1, 1, 1, 1, 1, 1, 1, 1, 1, 1, 1, 1, 1, 1, 1, 1, 1, 1, 1, 1, 1, 1, 1, 1, 1, 1, 1, 1, 1, 1, 1, 1, 1, 1, 1, 1, 1, 1, 1, 1, 1, 1, 1, 1, 1, 1, 1, 1, 1, 1, 1, 1, 1, 1, 1, 1, 1, 1, 1, 1, 1, 1, 1, 1, 1, 1, 1, 1, 1, 1, 1, 1, 1, 1, 1, 1, 1, 1, 1, 0, 1, 0, 1, 0, 0, 0, 0, 0, 0, 0, 0, 0, 0, 0, 0, 0, 0, 1, 1, 1, 1, 1, 1, 1, 1, 1, 1, 1, 1, 1, 1, 1, 1, 1, 1, 1, 1, 1, 1, 1, 1, 1, 1, 1, 1, 1, 1, 1, 1, 1, 1, 1, 1, 1, 1, 1, 1, 1, 1, 1, 1, 1, 1, 1, 1, 1, 1, 1, 1, 1, 1, 1, 1, 1, 1, 1, 1, 1, 1, 1, 1, 1, 1, 1, 1, 1, 1, 1, 1, 1, 1, 1, 1, 1, 1, 1, 1, 1, 1, 1, 1, 1, 1, 1, 1, 1, 1, 1, 1, 1, 1, 1, 1, 1, 1, 1, 1, 1, 1, 1, 1, 1, 1, 1, 1, 1, 1, 1, 1, 1, 1, 1, 1, 1, 1, 1, 1, 1, 1, 1, 1, 1, 1, 1, 1, 1, 1, 1, 1, 1, 1, 1, 1, 1, 1, 1, 1, 1, 1, 1, 1, 1, 1, 1, 1, 1, 1, 1, 1, 1, 1, 1, 1, 1, 1, 1, 1, 1, 1, 1, 1, 1, 1, 1, 1, 1, 1, 1, 1, 1, 1, 1, 1, 1, 1, 1, 1, 1, 1, 1, 1, 1, 1, 1, 1, 1, 1, 1, 1, 1, 1, 1, 1, 1, 1, 1, 1, 1, 1, 1, 1, 1, 1, 1, 1, 1, 1, 1, 1, 1, 1, 1, 1, 1, 1, 1, 1, 1, 1, 1, 1, 1, 1, 1, 1, 1, 1, 1, 1, 1, 1, 1, 1, 1, 1, 1, 1, 1, 1, 1, 1, 1, 1, 1, 1, 1, 1, 1, 1, 1, 1, 1, 1, 1, 1, 1, 1, 1, 1, 1, 1, 1, 1, 1, 1, 1, 1, 1, 1, 1, 1, 1, 1, 1, 1, 1, 1, 1, 1, 1, 1, 1, 1, 1, 1]);

same_allocation = [{task_6, task_9}, {task_19, task_35, task_43}, {task_8, task_16, task_75}, {task_67, task_71}, {task_25, task_72}, {task_60, task_69}, {task_31, task_36, task_81}, {task_4, task_15, task_20, task_49, task_70}, {task_57, task_64}, {task_2, task_79}, {task_18, task_32, task_56, task_76}, {task_10, task_13, task_37, task_63}, {task_26, task_54}, {task_1, task_58}];

successors = [
    (task: task_19, successors: {task_35}),
    (task: task_71, successors: {task_67}),
    (task: task_6, successors: {task_9}),
    (task: task_72, successors: {task_25}),
    (task: task_35, successors: {task_43}),
    (task: task_59, successors: {task_65}),
    (task: task_45, successors: {task_31}),
    (task: task_31, successors: {task_81}),
    (task: task_8, successors: {task_75}),
    (task: task_62, successors: {task_29}),
    (task: task_75, successors: {task_16}),
    (task: task_34, successors: {task_55}),
    (task: task_51, successors: {task_70}),
    (task: task_12, successors: {task_61}),
    (task: task_81, successors: {task_36}),
    (task: task_70, successors: {task_15}),
    (task: task_47, successors: {task_30}),
    (task: task_15, successors: {task_49}),
    (task: task_36, successors: {task_74}),
    (task: task_64, successors: {task_57}),
    (task: task_30, successors: {task_44}),
    (task: task_74, successors: {task_68}),
    (task: task_57, successors: {task_18}),
    (task: task_79, successors: {task_2}),
    (task: task_68, successors: {task_3}),
    (task: task_49, successors: {task_4}),
    (task: task_32, successors: {task_18}),
    (task: task_63, successors: {task_69}),
    (task: task_78, successors: {task_60}),
    (task: task_26, successors: {task_54}),
    (task: task_4, successors: {task_20}),
    (task: task_18, successors: {task_76}),
    (task: task_14, successors: {task_66}),
    (task: task_76, successors: {task_56}),
    (task: task_58, successors: {task_1}),
    (task: task_37, successors: {task_10}),
];
calendars = [
    (team: team_1, start_unavailable: 0, dur_unavailable: 14),
    (team: team_3, start_unavailable: 0, dur_unavailable: 14),
    (team: team_4, start_unavailable: 0, dur_unavailable: 14),
    (team: team_5, start_unavailable: 0, dur_unavailable: 14),
    (team: team_6, start_unavailable: 0, dur_unavailable: 14),
    (team: team_8, start_unavailable: 0, dur_unavailable: 14),
    (team: team_9, start_unavailable: 0, dur_unavailable: 14),
    (team: team_10, start_unavailable: 0, dur_unavailable: 14),
    (team: team_11, start_unavailable: 0, dur_unavailable: 14),
    (team: team_12, start_unavailable: 0, dur_unavailable: 14),
    (team: team_13, start_unavailable: 0, dur_unavailable: 14),
    (team: team_14, start_unavailable: 0, dur_unavailable: 14),
    (team: team_15, start_unavailable: 0, dur_unavailable: 14),
    (team: team_16, start_unavailable: 0, dur_unavailable: 14),
    (team: team_17, start_unavailable: 0, dur_unavailable: 14),
];