% Generated from instance_132.json
Team = {team_1, team_2, team_3, team_4, team_5, team_6, team_7, team_8, team_9, team_10, team_11, team_12, team_13, team_14, team_15, team_16, team_17, team_18};
Task = {task_1, task_2, task_3, task_4, task_5, task_6, task_7, task_8, task_9, task_10, task_11, task_12, task_13, task_14, task_15, task_16, task_17, task_18, task_19, task_20};

horizon = 470;
duration = [15, 60, 45, 30, 30, 30, 30, 15, 60, 15, 30, 15, 30, 15, 30, 15, 30, 15, 60, 15];
released = [114, 0, 48, 191, 380, 160, 32, 317, 94, 333, 222, 349, 286, 356, 83, 365, 253, 130, 158, 67];
due = [189, 90, 153, 281, 470, 250, 122, 392, 214, 408, 312, 424, 376, 431, 173, 440, 343, 205, 278, 142];
original_start = [144, 0, 78, 221, 410, 190, 62, 347, 124, 363, 252, 379, 316, 386, 113, 395, 283, 160, 188, 97];
compatible = array2d(Task, Team, [1, 1, 1, 1, 1, 1, 1, 1, 1, 1, 1, 1, 1, 1, 1, 1, 1, 1, 1, 1, 1, 1, 1, 1, 1, 1, 1, 1, 1, 1, 1, 1, 1, 1, 1, 1, 1, 1, 1, 1, 1, 1, 1, 1, 1, 1, 1, 1, 1, 1, 1, 1, 1, 1, 1, 1, 1, 1, 1, 1, 1, 1, 1, 1, 1, 1, 1, 1, 1, 1, 1, 1, 1, 1, 1, 1, 1, 1, 1, 1, 1, 1, 1, 1, 1, 1, 1, 1, 1, 1, 1, 1, 1, 1, 1, 1, 1, 1, 1, 1, 1, 1, 1, 1, 1, 1, 1, 1, 1, 1, 1, 1, 1, 1, 1, 1, 1, 1, 1, 1, 1, 1, 1, 1, 1, 1, 1, 1, 1, 1, 1, 1, 1, 1, 1, 1, 1, 1, 1, 1, 1, 1, 1, 1, 1, 1, 1, 1, 1, 1, 1, 1, 1, 1, 1, 1, 1, 1, 1, 1, 1, 1, 1, 1, 1, 1, 1, 1, 1, 1, 1, 1, 1, 1, 1, 1, 1, 1, 1, 1, 1, 1, 1, 1, 1, 1, 1, 1, 1, 1, 1, 1, 1, 1, 1, 1, 1, 1, 1, 1, 1, 1, 1, 1, 1, 1, 1, 1, 1, 1, 1, 1, 1, 1, 1, 1, 1, 1, 1, 1, 1, 1, 1, 1, 1, 1, 1, 1, 1, 1, 1, 1, 1, 1, 1, 1, 1, 1, 1, 1, 1, 1, 1, 1, 1, 1, 1, 1, 1, 1, 1, 1, 1, 1, 1, 1, 1, 1, 1, 1, 1, 1, 1, 1, 1, 1, 1, 1, 1, 1, 1, 1, 1, 1, 1, 1, 1, 1, 1, 1, 1, 1, 1, 1, 1, 1, 1, 1, 1, 1, 1, 1, 1, 1, 1, 1, 1, 1, 1, 1, 1, 1, 1, 1, 1, 1, 1, 1, 1, 1, 1, 1, 1, 1, 1, 1, 1, 1, 1, 1, 1, 1, 1, 1, 1, 1, 1, 1, 1, 1, 1, 1, 1, 1, 1, 1, 1, 1, 1, 1, 1, 1, 1, 1, 1, 1, 1, 1, 1, 1, 1, 1, 1, 1, 1, 1, 1, 1, 1, 1]);

same_allocation = [{task_2, task_7, task_20}, {task_4, task_11}, {task_13, task_17}, {task_8, task_10}, {task_12, task_16}];

successors = [
    (task: task_2, successors: {task_7}),
    (task: task_7, successors: {task_20}),
    (task: task_15, successors: {task_18}),
    (task: task_1, successors: {task_6}),
    (task: task_18, successors: {task_4}),
    (task: task_6, successors: {task_8}),
    (task: task_4, successors: {task_11}),
    (task: task_11, successors: {task_17}),
    (task: task_17, successors: {task_13}),
    (task: task_13, successors: {task_16}),
    (task: task_8, successors: {task_10, task_12}),
    (task: task_16, successors: {task_5}),
];
calendars = [
];