% Generated from instance_135.json
Team = {team_1, team_2, team_3, team_4, team_5, team_6, team_7, team_8, team_9, team_10, team_11, team_12, team_13, team_14, team_15, team_16, team_17, team_18, team_19, team_20};
Task = {task_1, task_2, task_3, task_4, task_5, task_6, task_7, task_8, task_9, task_10, task_11, task_12, task_13, task_14, task_15, task_16, task_17, task_18, task_19, task_20, task_21, task_22, task_23, task_24, task_25, task_26, task_27, task_28, task_29, task_30, task_31, task_32, task_33, task_34, task_35, task_36, task_37, task_38, task_39, task_40, task_41, task_42, task_43, task_44, task_45, task_46, task_47, task_48, task_49, task_50, task_51, task_52, task_53, task_54, task_55, task_56, task_57, task_58, task_59, task_60, task_61, task_62, task_63, task_64, task_65, task_66, task_67, task_68, task_69, task_70, task_71, task_72};

horizon = 493;
duration = [15, 30, 15, 15, 60, 30, 30, 45, 15, 15, 15, 15, 30, 15, 45, 45, 30, 45, 60, 30, 15, 15, 60, 15, 45, 15, 15, 30, 45, 15, 15, 45, 30, 45, 15, 15, 30, 30, 45, 75, 45, 45, 15, 60, 45, 15, 60, 30, 45, 60, 30, 30, 15, 45, 15, 15, 45, 45, 30, 15, 30, 60, 15, 30, 15, 15, 15, 45, 15, 30, 45, 45];
released = [0, 0, 219, 360, 0, 75, 329, 56, 18, 167, 120, 91, 201, 75, 114, 342, 233, 155, 223, 336, 66, 418, 256, 0, 123, 98, 104, 235, 7, 90, 215, 169, 369, 29, 120, 109, 44, 38, 318, 136, 214, 194, 106, 0, 265, 402, 371, 136, 0, 284, 311, 89, 57, 260, 107, 82, 311, 240, 376, 286, 59, 0, 302, 58, 74, 34, 50, 208, 203, 73, 127, 388];
due = [45, 83, 294, 435, 106, 165, 419, 161, 93, 242, 195, 166, 291, 150, 219, 447, 323, 260, 343, 426, 141, 493, 376, 47, 228, 173, 179, 325, 112, 165, 290, 274, 459, 134, 195, 184, 134, 128, 423, 271, 319, 299, 181, 94, 370, 477, 491, 226, 88, 404, 401, 179, 132, 365, 182, 157, 416, 345, 466, 361, 149, 103, 377, 148, 149, 109, 125, 313, 278, 163, 232, 493];
original_start = [0, 23, 249, 390, 16, 105, 359, 86, 48, 197, 150, 121, 231, 105, 144, 372, 263, 185, 253, 366, 96, 448, 286, 2, 153, 128, 134, 265, 37, 120, 245, 199, 399, 59, 150, 139, 74, 68, 348, 166, 244, 224, 136, 4, 295, 432, 401, 166, 13, 314, 341, 119, 87, 290, 137, 112, 341, 270, 406, 316, 89, 13, 332, 88, 104, 64, 80, 238, 233, 103, 157, 418];
compatible = array2d(Task, Team, [1, 1, 1, 1, 1, 1, 1, 1, 1, 1, 1, 1, 1, 1, 1, 1, 1, 1, 1, 1, 1, 1, 1, 1, 1, 1, 1, 1, 1, 1, 1, 1, 1, 1, 1, 1, 1, 1, 1, 1, 1, 1, 1, 1, 1, 1, 1, 1, 1, 1, 1, 1, 1, 1, 1, 1, 1, 1, 1, 1, 1, 1, 1, 1, 1, 1, 1, 1, 1, 1, 1, 1, 1, 1, 1, 1, 1, 1, 1, 1, 1, 1, 1, 1, 1, 1, 1, 1, 1, 1, 1, 1, 1, 1, 1, 1, 1, 1, 1, 1, 1, 1, 1, 1, 1, 1, 1, 1, 1, 1, 1, 1, 1, 1, 1, 1, 1, 1, 1, 1, 1, 1, 1, 1, 1, 1, 1, 1, 1, 1, 1, 1, 1, 1, 1, 1, 1, 1, 1, 1, 1, 1, 1, 1, 1, 1, 1, 1, 1, 1, 1, 1, 1, 1, 1, 1, 1, 1, 1, 1, 1, 1, 1, 1, 1, 1, 1, 1, 1, 1, 1, 1, 1, 1, 1, 1, 1, 1, 1, 1, 1, 1, 1, 1, 1, 1, 1, 1, 1, 1, 1, 1, 1, 1, 1, 1, 1, 1, 1, 1, 1, 1, 1, 1, 1, 1, 1, 1, 1, 1, 1, 1, 1, 1, 1, 1, 1, 1, 1, 1, 1, 1, 1, 1, 1, 1, 1, 1, 1, 1, 1, 1, 1, 1, 1, 1, 1, 1, 1, 1, 1, 1, 1, 1, 1, 1, 1, 1, 1, 1, 1, 1, 1, 1, 1, 1, 1, 1, 1, 1, 1, 1, 1, 1, 1, 1, 1, 1, 1, 1, 1, 1, 1, 1, 1, 1, 1, 1, 1, 1, 1, 1, 1, 1, 1, 1, 1, 1, 1, 1, 1, 1, 1, 1, 1, 1, 1, 1, 1, 1, 1, 1, 1, 1, 1, 1, 1, 1, 1, 1, 1, 1, 1, 1, 1, 1, 1, 1, 1, 1, 1, 1, 1, 1, 1, 1, 1, 1, 1, 1, 1, 1, 1, 1, 1, 1, 1, 1, 1, 1, 1, 1, 1, 1, 1, 1, 1, 1, 1, 1, 1, 1, 1, 1, 1, 1, 1, 1, 1, 1, 1, 1, 1, 1, 1, 1, 1, 1, 1, 1, 1, 1, 1, 1, 1, 1, 1, 1, 1, 1, 1, 1, 1, 1, 1, 1, 1, 1, 1, 1, 1, 1, 1, 1, 1, 1, 1, 1, 1, 1, 1, 1, 1, 1, 1, 1, 1, 1, 1, 1, 1, 1, 1, 1, 1, 1, 1, 1, 1, 1, 1, 1, 1, 1, 1, 1, 1, 1, 1, 1, 1, 1, 1, 1, 1, 1, 1, 1, 1, 1, 1, 1, 1, 1, 1, 1, 1, 1, 1, 1, 1, 1, 1, 1, 1, 1, 1, 1, 1, 1, 1, 1, 1, 1, 1, 1, 1, 1, 1, 1, 1, 1, 1, 1, 1, 1, 1, 1, 1, 1, 1, 1, 1, 1, 1, 1, 1, 1, 1, 1, 1, 1, 1, 1, 1, 1, 1, 1, 1, 1, 1, 1, 1, 1, 1, 1, 1, 1, 1, 1, 1, 1, 1, 1, 1, 1, 1, 1, 1, 1, 1, 1, 1, 1, 1, 1, 1, 1, 1, 1, 1, 1, 1, 1, 1, 1, 1, 1, 1, 1, 1, 1, 1, 1, 1, 1, 1, 1, 1, 1, 1, 1, 1, 1, 1, 1, 1, 1, 1, 1, 1, 1, 1, 1, 1, 1, 1, 1, 1, 1, 1, 1, 1, 1, 1, 1, 1, 1, 1, 1, 0, 0, 0, 0, 0, 0, 0, 0, 0, 1, 1, 0, 0, 0, 0, 0, 0, 0, 0, 0, 1, 1, 1, 1, 1, 1, 1, 1, 1, 1, 1, 1, 1, 1, 1, 1, 1, 1, 1, 1, 1, 1, 1, 1, 1, 1, 1, 1, 1, 1, 1, 1, 1, 1, 1, 1, 1, 1, 1, 1, 1, 1, 1, 1, 1, 1, 1, 1, 1, 1, 1, 1, 1, 1, 1, 1, 1, 1, 1, 1, 1, 1, 1, 1, 1, 1, 1, 1, 1, 1, 1, 1, 1, 1, 1, 1, 1, 1, 1, 1, 1, 1, 1, 1, 1, 1, 1, 1, 1, 1, 1, 1, 1, 1, 1, 1, 1, 1, 1, 1, 1, 1, 1, 1, 1, 1, 1, 1, 1, 1, 1, 1, 1, 1, 1, 1, 1, 1, 1, 1, 1, 1, 1, 1, 1, 1, 1, 1, 1, 1, 1, 1, 1, 1, 1, 1, 1, 1, 1, 1, 0, 0, 0, 0, 0, 0, 0, 0, 0, 1, 1, 0, 0, 0, 0, 0, 0, 0, 0, 0, 1, 1, 1, 1, 1, 1, 1, 1, 1, 1, 1, 1, 1, 1, 1, 1, 1, 1, 1, 1, 1, 1, 1, 1, 1, 1, 1, 1, 1, 1, 1, 1, 1, 1, 1, 1, 1, 1, 1, 1, 1, 1, 1, 1, 1, 1, 1, 1, 1, 1, 1, 1, 1, 1, 1, 1, 1, 1, 1, 1, 1, 1, 1, 1, 1, 1, 1, 1, 1, 1, 1, 1, 1, 1, 1, 1, 1, 1, 1, 1, 1, 1, 1, 1, 1, 1, 1, 1, 1, 1, 1, 1, 1, 1, 1, 1, 1, 1, 1, 1, 1, 1, 1, 1, 1, 1, 1, 1, 1, 1, 1, 1, 1, 1, 1, 1, 1, 1, 1, 1, 1, 1, 1, 1, 1, 1, 1, 1, 1, 1, 1, 1, 1, 1, 1, 1, 1, 1, 1, 1, 1, 1, 1, 1, 1, 1, 1, 1, 1, 1, 1, 1, 1, 1, 1, 1, 1, 1, 1, 1, 1, 1, 1, 1, 1, 1, 1, 1, 1, 1, 1, 1, 1, 1, 1, 1, 1, 1, 1, 1, 1, 1, 1, 1, 1, 1, 1, 1, 1, 1, 1, 1, 1, 1, 1, 1, 1, 1, 1, 1, 1, 1, 1, 1, 1, 1, 1, 1, 1, 1, 1, 1, 1, 1, 1, 1, 1, 1, 1, 1, 1, 1, 1, 1, 1, 1, 1, 1, 1, 1, 1, 1, 1, 1, 1, 1, 1, 1, 1, 1, 1, 1, 1, 1, 1, 1, 1, 1, 1, 1, 1, 1, 1, 1, 1, 1, 1, 1, 1, 1, 1, 1, 1, 1, 1, 1, 1, 1, 1, 1, 1, 1, 1, 1, 1, 1, 1, 1, 1, 1, 1, 1, 1, 1, 1, 1, 1, 1, 1, 1, 1, 1, 1, 1, 1, 1, 1, 1, 1, 1, 1, 1, 1, 1, 1, 1, 1, 1, 1, 1, 1, 1, 1, 1, 1, 1, 1, 1, 1, 1, 1, 1, 1, 1, 1, 1, 1, 1, 1, 1, 1, 1, 1, 1, 1, 1, 1, 1, 1, 1, 1, 1, 1, 1, 1, 1, 1, 1, 1, 1, 1, 1, 1, 1, 1, 1, 1, 1, 1, 1, 1, 1, 1, 1, 1, 1, 1, 1, 1, 1, 1, 1, 1, 1, 1, 1, 1, 1, 1, 1, 1, 1, 1, 1, 1, 1, 1, 1, 1, 1, 1, 1, 1, 1, 1, 1, 1, 1, 1, 1, 1, 1, 1, 1, 1, 1, 1, 1, 1, 1, 1, 1, 1, 1, 1, 1, 1, 1, 1, 1, 1, 1, 1, 1, 1, 1, 1, 1, 1, 1, 1, 1, 1, 1, 1, 1, 1, 1, 1, 1, 1, 1, 1, 1, 1, 1, 1, 1, 1, 1, 1, 1, 1, 1, 1, 1, 1, 1, 1, 1, 1, 1, 1, 1, 1, 1, 1, 1, 1, 1, 1, 1, 1, 1, 1, 1, 1, 1, 1, 1, 1, 1, 1, 1, 1, 1, 1, 1, 1, 1, 1, 1, 1, 1, 1, 1, 1, 1, 1, 1, 1, 1, 1, 1, 1, 1, 1, 1, 1, 1, 1, 1, 1, 1, 1, 1, 1, 1, 1, 1, 0, 0, 0, 0, 0, 0, 0, 0, 0, 1, 1, 0, 0, 0, 0, 0, 0, 0, 0, 0, 1, 1, 1, 1, 1, 1, 1, 1, 1, 1, 1, 1, 1, 1, 1, 1, 1, 1, 1, 1, 1, 1, 1, 1, 1, 1, 1, 1, 1, 1, 1, 1, 1, 1, 1, 1, 1, 1, 1, 1, 1, 1, 1, 1, 1, 1, 1, 1, 1, 1, 1, 1, 1, 1, 1, 1, 1, 1, 1, 1, 1, 1, 1, 1, 1, 1, 1, 1, 1, 1, 1, 1, 1, 1, 1, 1, 1, 1, 1, 1, 1, 1, 1, 1, 1, 1, 1, 1, 1, 1, 1, 1, 1, 1, 1, 1, 1, 1, 1, 1, 0, 0, 0, 0, 0, 0, 0, 0, 0, 1, 1, 0, 0, 0, 0, 0, 0, 0, 0, 0, 1, 1, 1, 1, 1, 1, 1, 1, 1, 1, 1, 1, 1, 1, 1, 1, 1, 1, 1, 1]);

same_allocation = [{task_1, task_5}, {task_20, task_33, task_46}, {task_6, task_37}, {task_53, task_70}, {task_52, task_64}, {task_10, task_48}, {task_31, task_32}, {task_60, task_63}, {task_13, task_17}, {task_41, task_54}, {task_4, task_7}];

successors = [
    (task: task_1, successors: {task_5}),
    (task: task_2, successors: {task_42}),
    (task: task_9, successors: {task_57}),
    (task: task_37, successors: {task_6}),
    (task: task_64, successors: {task_52}),
    (task: task_14, successors: {task_12}),
    (task: task_56, successors: {task_45}),
    (task: task_12, successors: {task_25}),
    (task: task_27, successors: {task_11}),
    (task: task_15, successors: {task_3}),
    (task: task_48, successors: {task_10}),
    (task: task_40, successors: {task_54}),
    (task: task_32, successors: {task_31}),
    (task: task_69, successors: {task_16}),
    (task: task_13, successors: {task_17}),
    (task: task_42, successors: {task_58}),
    (task: task_41, successors: {task_54}),
    (task: task_28, successors: {task_47}),
    (task: task_58, successors: {task_60}),
    (task: task_60, successors: {task_63}),
    (task: task_54, successors: {task_4}),
    (task: task_23, successors: {task_39}),
    (task: task_63, successors: {task_20}),
    (task: task_7, successors: {task_4}),
    (task: task_20, successors: {task_33}),
    (task: task_4, successors: {task_59}),
    (task: task_33, successors: {task_46}),
];
calendars = [
];